221.00
226.00
219.00
226.00
225.00
226.00
221.00
226.00
276.00
296.00
269.00
285.00
222.00
225.00
224.00
226.00
221.00
226.00
199.00
226.00
217.00
225.00
222.00
226.00
217.00
226.00
225.00
226.00
226.00
225.00
226.00
226.00
226.00
226.00
226.00
226.00
226.00
225.00
225.00
222.00
226.00
219.00
226.00
223.00
226.00
222.00
226.00
222.00
222.00
226.00
